BEGIN
BEGIN_PATH_INPUT
&PATH
    ci_scheme      = "auto"
    ds             =  1.0
    first_last_opt = .TRUE.
    k_max          =  0.61685028
    k_min          =  0.41123352
    nstep_path     =  250
    num_of_images  =  7
    opt_scheme     = "broyden"
    path_thr       =  0.1
    restart_mode   = "from_scratch"
    string_method  = "neb"
    use_freezing   = .FALSE.
/
END_PATH_INPUT

BEGIN_ENGINE_INPUT
&CONTROL
    pseudo_dir = "./"
    verbosity  = "low"
/

&SYSTEM
    a                         =  13.1337185
    b                         =  13.6537423
    c                         =  28.7501618
    cosab                     = -0.61543451
    degauss                   =  0.01
    ecutrho                   =  225.0
    ecutwfc                   =  25.0
    ibrav                     =  12
    nat                       =  132
    nspin                     =  2
    ntyp                      =  4
    occupations               = "smearing"
    smearing                  = "gaussian"
    starting_magnetization(1) =  0.0
    starting_magnetization(2) =  0.2
/

&ELECTRONS
    conv_thr         =  1.0e-4
    diagonalization  = "david"
    electron_maxstep =  200
    mixing_beta      =  0.1
    startingpot      = "atomic"
    startingwfc      = "atomic+random"
/

K_POINTS {gamma}

ATOMIC_SPECIES
O      15.99940  O.pbe-rrkjus.UPF
Cu     63.54600  Cu.pbe-n-van_ak.UPF
N      14.00674  N.pbe-rrkjus.UPF
H       1.00794  H.pbe-rrkjus.UPF

BEGIN_POSITIONS
FIRST_IMAGE
ATOMIC_POSITIONS {angstrom}
O       8.465185   3.424814  18.663141
O      -3.489734   6.106751  18.682898
Cu     -0.859296   1.545615  18.125038
Cu      2.337833   1.578575  18.195246
Cu     -3.043252   4.303436  18.197565
Cu      0.291055   4.125411  18.102767
O      10.620099   2.455342  17.662930
O      -1.331060   5.120904  17.674115
O      -0.609191   1.496211  16.069377
O       0.574914   4.186414  16.089746
Cu     10.911119   2.439773  15.676393
Cu      1.015070   2.370966  15.551456
Cu      8.769087   5.058164  15.552813
Cu     -1.042513   5.130207  15.679932
O       9.253735   3.241529  15.050632
O      -2.700580   5.934085  15.051590
O      11.148684   2.233471  13.714344  0 0 0
O      -0.802349   4.923902  13.714347  0 0 0
Cu      9.501732   3.112811  13.116173  0 0 0
Cu     -0.348590   3.112779  13.116139  0 0 0
Cu      7.400980   5.803313  13.116118  0 0 0
Cu     -2.449342   5.803283  13.116082  0 0 0
O       0.105197   1.301765  12.517910  0 0 0
O       1.287879   3.992191  12.517907  0 0 0
O       9.820184   2.963114  11.196440  0 0 0
O      -2.130853   5.653540  11.196437  0 0 0
Cu      0.423688   1.152022  10.598266  0 0 0
Cu      3.707084   1.151991  10.598232  0 0 0
Cu     -1.677065   3.842524  10.598210  0 0 0
Cu      1.606332   3.842494  10.598174  0 0 0
O      -1.223306   2.031403  10.000000  0 0 0
O      -0.040621   4.721834  10.000003  0 0 0
O       4.258595   8.805258  18.672565
O       0.708889   0.713379  18.656753
Cu     -5.052472   6.925021  18.123208
Cu     -1.869940   6.987093  18.196921
Cu     -7.251010   9.665781  18.198947
Cu     -3.883365   9.617641  18.132000
O       6.438731   7.832001  17.657426
O      -5.540598  10.501545  17.666947
O      -4.810149   6.861390  16.074952
O      -3.630970   9.557388  16.078246
Cu      6.671739   7.744140  15.670915
Cu     -3.185454   7.752536  15.557258
Cu      4.562202  10.442760  15.552989
Cu     -5.287197  10.425850  15.674340
O       5.040105   8.612829  15.051942
O       1.494657   0.542863  15.051739
O       6.947192   7.614329  13.714344  0 0 0
O      -5.003841  10.304760  13.714347  0 0 0
Cu      5.300240   8.493669  13.116173  0 0 0
Cu     -4.550082   8.493637  13.116139  0 0 0
Cu     11.602472   0.422455  13.116118  0 0 0
Cu      1.752151   0.422425  13.116082  0 0 0
O      -4.096295   6.682623  12.517910  0 0 0
O      -2.913613   9.373049  12.517907  0 0 0
O       5.618692   8.343972  11.196440  0 0 0
O       2.070639   0.272682  11.196437  0 0 0
Cu     -3.777805   6.532880  10.598266  0 0 0
Cu     -0.494408   6.532849  10.598232  0 0 0
Cu     -5.878557   9.223383  10.598210  0 0 0
Cu     -2.595160   9.223352  10.598174  0 0 0
O      -5.424798   7.412261  10.000000  0 0 0
O      -4.242113  10.102692  10.000003  0 0 0
O       1.884073   3.364295  18.675803
O       3.115995   6.068940  18.613623
Cu      5.706499   1.512195  18.120340
Cu      8.908000   1.616847  18.196490
Cu      3.521403   4.237786  18.174545
Cu      6.890704   4.232201  18.121554
O       4.051916   2.391563  17.651214
O       5.240658   5.118099  17.659027
O       5.963818   1.488905  16.073697
O       7.141831   4.171430  16.068861
Cu      4.300495   2.345804  15.669211
Cu      7.590870   2.368752  15.552716
Cu      2.206890   5.059130  15.589041
Cu      5.484495   5.044873  15.676625
O       2.679244   3.236677  15.052672
O       3.859928   5.922931  15.057397
O       4.581825   2.233471  13.714344  0 0 0
O       5.764510   4.923902  13.714347  0 0 0
Cu      2.934873   3.112811  13.116173  0 0 0
Cu      6.218269   3.112779  13.116139  0 0 0
Cu      0.834121   5.803313  13.116118  0 0 0
Cu      4.117518   5.803283  13.116082  0 0 0
O       6.672057   1.301765  12.517910  0 0 0
O       7.854738   3.992191  12.517907  0 0 0
O       3.253325   2.963114  11.196440  0 0 0
O       4.436007   5.653540  11.196437  0 0 0
Cu      6.990547   1.152022  10.598266  0 0 0
Cu     10.273943   1.151991  10.598232  0 0 0
Cu      4.889795   3.842524  10.598210  0 0 0
Cu      8.173192   3.842494  10.598174  0 0 0
O       5.343553   2.031403  10.000000  0 0 0
O       6.526238   4.721834  10.000003  0 0 0
O      -2.305729   8.809207  18.661624
O       7.286021   0.735034  18.684317
Cu      1.484047   6.926042  18.092678
Cu      4.731819   6.994317  18.186068
Cu     -0.676859   9.697222  18.196733
Cu      2.719159   9.678291  18.116241
O      -0.174705   7.855756  17.646277
O       1.042413  10.543113  17.667006
O       1.751843   6.881363  16.121597
O       2.940304   9.568941  16.085606
Cu      0.138330   7.828165  15.674720
Cu      3.390722   7.750159  15.590469
Cu     -2.003117  10.441708  15.556107
Cu      1.327581  10.516548  15.676787
O      -1.524842   8.627022  15.045746
O       8.068644   0.550727  15.050378
O       0.380333   7.614329  13.714344  0 0 0
O       1.563018  10.304760  13.714347  0 0 0
Cu     -1.266619   8.493669  13.116173  0 0 0
Cu      2.016777   8.493637  13.116139  0 0 0
Cu      5.035613   0.422455  13.116118  0 0 0
Cu      8.319010   0.422425  13.116082  0 0 0
O       2.470564   6.682623  12.517910  0 0 0
O       3.653246   9.373049  12.517907  0 0 0
O      -0.948167   8.343972  11.196440  0 0 0
O       8.637499   0.272682  11.196437  0 0 0
Cu      2.789055   6.532880  10.598266  0 0 0
Cu      6.072451   6.532849  10.598232  0 0 0
Cu      0.688302   9.223383  10.598210  0 0 0
Cu      3.971700   9.223352  10.598174  0 0 0
O       1.142061   7.412261  10.000000  0 0 0
O       2.324746  10.102692  10.000003  0 0 0
N       1.485034   6.538560  19.987710
O       1.767213   7.340332  20.801533
H       1.886714   9.768969  22.129010
H       1.193478   9.588376  22.357874
INTERMEDIATE_IMAGE
ATOMIC_POSITIONS {angstrom}
O       8.480787   3.440355  18.676212
O      -3.480931   6.116956  18.684838
Cu     -0.822244   1.600454  18.134129
Cu      2.353957   1.647791  18.204871
Cu     -3.032983   4.311758  18.203494
Cu      0.333421   4.236816  18.124404
O      10.631418   2.457038  17.695346
O      -1.326560   5.138596  17.678046
O      -0.622999   1.468855  16.105429
O       0.559730   4.158478  16.090601
Cu     10.858859   2.342682  15.688371
Cu      1.002160   2.352648  15.560010
Cu      8.765260   5.056455  15.556330
Cu     -1.093748   5.033861  15.681883
O       9.247884   3.230879  15.056637
O      -2.709034   5.922408  15.052864
O      11.148684   2.233471  13.714344
O      -0.802349   4.923902  13.714347
Cu      9.501732   3.112811  13.116173
Cu     -0.348590   3.112779  13.116139
Cu      7.400980   5.803313  13.116118
Cu     -2.449342   5.803283  13.116082
O       0.105197   1.301765  12.517910
O       1.287879   3.992191  12.517907
O       9.820184   2.963114  11.196440
O      -2.130853   5.653540  11.196437
Cu      0.423688   1.152022  10.598266
Cu      3.707084   1.151991  10.598232
Cu     -1.677065   3.842524  10.598210
Cu      1.606332   3.842494  10.598174
O      -1.223306   2.031403  10.000000
O      -0.040621   4.721834  10.000003
O       4.331244   8.800415  18.670390
O       0.735437   0.763905  18.682469
Cu     -5.037082   6.950011  18.139527
Cu     -1.868348   7.005222  18.198220
Cu     -7.215442   9.707881  18.218041
Cu     -3.888565   9.653214  18.133432
O       6.464902   7.862627  17.662706
O      -5.524409  10.556269  17.670812
O      -4.813848   6.858044  16.089263
O      -3.641399   9.563524  16.073767
Cu      6.677566   7.750627  15.673836
Cu     -3.196654   7.750967  15.561097
Cu      4.568536  10.419237  15.602781
Cu     -5.294504  10.433448  15.678722
O       5.038874   8.604797  15.061544
O       1.481105   0.529284  15.053361
O       6.947192   7.614329  13.714344
O      -5.003841  10.304760  13.714347
Cu      5.300240   8.493669  13.116173
Cu     -4.550082   8.493637  13.116139
Cu     11.602472   0.422455  13.116118
Cu      1.752151   0.422425  13.116082
O      -4.096295   6.682623  12.517910
O      -2.913613   9.373049  12.517907
O       5.618692   8.343972  11.196440
O       2.070639   0.272682  11.196437
Cu     -3.777805   6.532880  10.598266
Cu     -0.494408   6.532849  10.598232
Cu     -5.878557   9.223383  10.598210
Cu     -2.595160   9.223352  10.598174
O      -5.424798   7.412261  10.000000
O      -4.242113  10.102692  10.000003
O       1.920099   3.458843  18.679229
O       3.132973   6.120229  18.570253
Cu      5.722214   1.591185  18.135750
Cu      8.936050   1.607912  18.280858
Cu      3.546487   4.316478  18.164317
Cu      6.914450   4.255628  18.130019
O       4.065473   2.464446  17.662465
O       5.266409   5.142147  17.646292
O       5.956836   1.493424  16.081816
O       7.145731   4.176583  16.079496
Cu      4.303692   2.364553  15.674840
Cu      7.598943   2.360418  15.596557
Cu      2.193220   5.036308  15.563623
Cu      5.488906   5.044796  15.666818
O       2.669439   3.219388  15.052298
O       3.854434   5.914448  15.054129
O       4.581825   2.233471  13.714344
O       5.764510   4.923902  13.714347
Cu      2.934873   3.112811  13.116173
Cu      6.218269   3.112779  13.116139
Cu      0.834121   5.803313  13.116118
Cu      4.117518   5.803283  13.116082
O       6.672057   1.301765  12.517910
O       7.854738   3.992191  12.517907
O       3.253325   2.963114  11.196440
O       4.436007   5.653540  11.196437
Cu      6.990547   1.152022  10.598266
Cu     10.273943   1.151991  10.598232
Cu      4.889795   3.842524  10.598210
Cu      8.173192   3.842494  10.598174
O       5.343553   2.031403  10.000000
O       6.526238   4.721834  10.000003
O      -2.323708   8.826501  18.640489
O       7.276555   0.757713  18.677421
Cu      1.543175   7.067536  18.087295
Cu      4.756237   7.009931  18.147966
Cu     -0.742154   9.727752  18.083899
Cu      2.613838   9.486824  18.194511
O      -0.202778   7.862071  17.577781
O       1.014968  10.521785  17.672857
O       1.720076   6.828384  16.078227
O       2.944123   9.562816  16.143711
Cu      0.076668   7.716640  15.646514
Cu      3.377803   7.736145  15.610259
Cu     -2.030437  10.454979  15.509671
Cu      1.299413  10.442080  15.697107
O      -1.542908   8.620136  15.033291
O       8.066077   0.544063  15.052559
O       0.380333   7.614329  13.714344
O       1.563018  10.304760  13.714347
Cu     -1.266619   8.493669  13.116173
Cu      2.016777   8.493637  13.116139
Cu      5.035613   0.422455  13.116118
Cu      8.319010   0.422425  13.116082
O       2.470564   6.682623  12.517910
O       3.653246   9.373049  12.517907
O      -0.948167   8.343972  11.196440
O       8.637499   0.272682  11.196437
Cu      2.789055   6.532880  10.598266
Cu      6.072451   6.532849  10.598232
Cu      0.688302   9.223383  10.598210
Cu      3.971700   9.223352  10.598174
O       1.142061   7.412261  10.000000
O       2.324746  10.102692  10.000003
N       1.762951   8.296114  19.581642
O       0.815742   8.637280  20.226979
H       1.989652   8.552802  22.543621
H       1.522694   8.627016  23.125124
INTERMEDIATE_IMAGE
ATOMIC_POSITIONS {angstrom}
O       8.496744   3.452570  18.684080
O      -3.455693   6.131427  18.668966
Cu     -0.803375   1.607132  18.126693
Cu      2.365653   1.661377  18.189981
Cu     -3.008007   4.318347  18.228115
Cu      0.342589   4.237545  18.121113
O      10.649736   2.467983  17.697457
O      -1.310784   5.148517  17.681337
O      -0.608053   1.486771  16.097082
O       0.569670   4.179277  16.094347
Cu     10.860162   2.344827  15.689265
Cu      1.012832   2.374503  15.551098
Cu      8.771190   5.054788  15.559482
Cu     -1.094571   5.031813  15.682615
O       9.247994   3.231224  15.056289
O      -2.705129   5.918520  15.051885
O      11.148684   2.233471  13.714344
O      -0.802349   4.923902  13.714347
Cu      9.501732   3.112811  13.116173
Cu     -0.348590   3.112779  13.116139
Cu      7.400980   5.803313  13.116118
Cu     -2.449342   5.803283  13.116082
O       0.105197   1.301765  12.517910
O       1.287879   3.992191  12.517907
O       9.820184   2.963114  11.196440
O      -2.130853   5.653540  11.196437
Cu      0.423688   1.152022  10.598266
Cu      3.707084   1.151991  10.598232
Cu     -1.677065   3.842524  10.598210
Cu      1.606332   3.842494  10.598174
O      -1.223306   2.031403  10.000000
O      -0.040621   4.721834  10.000003
O       4.366732   8.812529  18.591818
O       0.755074   0.773966  18.680120
Cu     -5.008862   6.964080  18.130262
Cu     -1.842109   7.021793  18.189010
Cu     -7.172495   9.724293  18.201901
Cu     -3.847628   9.674857  18.130081
O       6.492319   7.867698  17.658004
O      -5.486371  10.578622  17.664338
O      -4.806838   6.859135  16.075832
O      -3.630499   9.553193  16.074861
Cu      6.683256   7.753305  15.670213
Cu     -3.187145   7.747112  15.550457
Cu      4.587657  10.440150  15.593022
Cu     -5.276576  10.436837  15.675245
O       5.045668   8.618438  15.058791
O       1.499675   0.545965  15.053527
O       6.947192   7.614329  13.714344
O      -5.003841  10.304760  13.714347
Cu      5.300240   8.493669  13.116173
Cu     -4.550082   8.493637  13.116139
Cu     11.602472   0.422455  13.116118
Cu      1.752151   0.422425  13.116082
O      -4.096295   6.682623  12.517910
O      -2.913613   9.373049  12.517907
O       5.618692   8.343972  11.196440
O       2.070639   0.272682  11.196437
Cu     -3.777805   6.532880  10.598266
Cu     -0.494408   6.532849  10.598232
Cu     -5.878557   9.223383  10.598210
Cu     -2.595160   9.223352  10.598174
O      -5.424798   7.412261  10.000000
O      -4.242113  10.102692  10.000003
O       1.928908   3.466315  18.681603
O       3.167817   6.143988  18.619830
Cu      5.731133   1.602048  18.121774
Cu      8.949507   1.625406  18.262005
Cu      3.558279   4.335506  18.175396
Cu      6.933147   4.263513  18.128610
O       4.069770   2.478724  17.652482
O       5.280765   5.147002  17.654575
O       5.954400   1.492481  16.069852
O       7.146945   4.180181  16.079269
Cu      4.304836   2.372054  15.669054
Cu      7.590808   2.367290  15.576934
Cu      2.198985   5.063411  15.579419
Cu      5.492381   5.054966  15.667875
O       2.676071   3.249002  15.049514
O       3.857536   5.930849  15.056721
O       4.581825   2.233471  13.714344
O       5.764510   4.923902  13.714347
Cu      2.934873   3.112811  13.116173
Cu      6.218269   3.112779  13.116139
Cu      0.834121   5.803313  13.116118
Cu      4.117518   5.803283  13.116082
O       6.672057   1.301765  12.517910
O       7.854738   3.992191  12.517907
O       3.253325   2.963114  11.196440
O       4.436007   5.653540  11.196437
Cu      6.990547   1.152022  10.598266
Cu     10.273943   1.151991  10.598232
Cu      4.889795   3.842524  10.598210
Cu      8.173192   3.842494  10.598174
O       5.343553   2.031403  10.000000
O       6.526238   4.721834  10.000003
O      -2.295677   8.834038  18.656897
O       7.293004   0.768925  18.651070
Cu      1.601131   7.125500  18.177547
Cu      4.792990   7.007229  18.152927
Cu     -0.690633   9.723498  18.160682
Cu      2.653397   9.498720  18.137360
O      -0.158133   7.879130  17.634109
O       1.030394  10.540807  17.663242
O       1.738871   6.845712  16.143049
O       2.956070   9.599559  16.131492
Cu      0.094813   7.720555  15.677374
Cu      3.387462   7.751809  15.626387
Cu     -2.013412  10.444912  15.535167
Cu      1.293833  10.453829  15.687608
O      -1.526244   8.611043  15.046735
O       8.061431   0.548801  15.050632
O       0.380333   7.614329  13.714344
O       1.563018  10.304760  13.714347
Cu     -1.266619   8.493669  13.116173
Cu      2.016777   8.493637  13.116139
Cu      5.035613   0.422455  13.116118
Cu      8.319010   0.422425  13.116082
O       2.470564   6.682623  12.517910
O       3.653246   9.373049  12.517907
O      -0.948167   8.343972  11.196440
O       8.637499   0.272682  11.196437
Cu      2.789055   6.532880  10.598266
Cu      6.072451   6.532849  10.598232
Cu      0.688302   9.223383  10.598210
Cu      3.971700   9.223352  10.598174
O       1.142061   7.412261  10.000000
O       2.324746  10.102692  10.000003
N       1.916212   8.417780  19.536427
O       0.673008   8.366638  20.937330
H       1.753930   8.263019  22.008244
H       0.909739   8.274821  22.871011
INTERMEDIATE_IMAGE
ATOMIC_POSITIONS {angstrom}
O       8.508711   3.461730  18.689980
O      -3.436765   6.142280  18.657062
Cu     -0.789222   1.612140  18.121115
Cu      2.374425   1.671566  18.178813
Cu     -2.989274   4.323289  18.246581
Cu      0.349464   4.238091  18.118645
O      10.663474   2.476192  17.699040
O      -1.298952   5.155958  17.683805
O      -0.596844   1.500207  16.090821
O       0.577124   4.194877  16.097157
Cu     10.861138   2.346435  15.689935
Cu      1.020836   2.390894  15.544413
Cu      8.775638   5.053537  15.561846
Cu     -1.095187   5.030276  15.683163
O       9.248077   3.231482  15.056027
O      -2.702200   5.915604  15.051151
O      11.148684   2.233471  13.714344
O      -0.802349   4.923902  13.714347
Cu      9.501732   3.112811  13.116173
Cu     -0.348590   3.112779  13.116139
Cu      7.400980   5.803313  13.116118
Cu     -2.449342   5.803283  13.116082
O       0.105197   1.301765  12.517910
O       1.287879   3.992191  12.517907
O       9.820184   2.963114  11.196440
O      -2.130853   5.653540  11.196437
Cu      0.423688   1.152022  10.598266
Cu      3.707084   1.151991  10.598232
Cu     -1.677065   3.842524  10.598210
Cu      1.606332   3.842494  10.598174
O      -1.223306   2.031403  10.000000
O      -0.040621   4.721834  10.000003
O       4.393348   8.821614  18.532888
O       0.769802   0.781511  18.678357
Cu     -4.987697   6.974631  18.123313
Cu     -1.822430   7.034220  18.182103
Cu     -7.140285   9.736602  18.189795
Cu     -3.816925   9.691089  18.127568
O       6.512882   7.871500  17.654478
O      -5.457842  10.595386  17.659483
O      -4.801581   6.859953  16.065760
O      -3.622323   9.545444  16.075682
Cu      6.687523   7.755314  15.667495
Cu     -3.180012   7.744221  15.542476
Cu      4.601998  10.455835  15.585703
Cu     -5.263130  10.439378  15.672636
O       5.050763   8.628669  15.056726
O       1.513603   0.558476  15.053652
O       6.947192   7.614329  13.714344
O      -5.003841  10.304760  13.714347
Cu      5.300240   8.493669  13.116173
Cu     -4.550082   8.493637  13.116139
Cu     11.602472   0.422455  13.116118
Cu      1.752151   0.422425  13.116082
O      -4.096295   6.682623  12.517910
O      -2.913613   9.373049  12.517907
O       5.618692   8.343972  11.196440
O       2.070639   0.272682  11.196437
Cu     -3.777805   6.532880  10.598266
Cu     -0.494408   6.532849  10.598232
Cu     -5.878557   9.223383  10.598210
Cu     -2.595160   9.223352  10.598174
O      -5.424798   7.412261  10.000000
O      -4.242113  10.102692  10.000003
O       1.935515   3.471919  18.683383
O       3.193950   6.161806  18.657012
Cu      5.737822   1.610195  18.111292
Cu      8.959599   1.638527  18.247864
Cu      3.567123   4.349776  18.183704
Cu      6.947170   4.269426  18.127552
O       4.072993   2.489433  17.644994
O       5.291531   5.150642  17.660786
O       5.952572   1.491774  16.060878
O       7.147856   4.182880  16.079099
Cu      4.305694   2.377680  15.664714
Cu      7.584707   2.372443  15.562217
Cu      2.203309   5.083738  15.591266
Cu      5.494987   5.062594  15.668668
O       2.681045   3.271212  15.047425
O       3.859862   5.943149  15.058664
O       4.581825   2.233471  13.714344
O       5.764510   4.923902  13.714347
Cu      2.934873   3.112811  13.116173
Cu      6.218269   3.112779  13.116139
Cu      0.834121   5.803313  13.116118
Cu      4.117518   5.803283  13.116082
O       6.672057   1.301765  12.517910
O       7.854738   3.992191  12.517907
O       3.253325   2.963114  11.196440
O       4.436007   5.653540  11.196437
Cu      6.990547   1.152022  10.598266
Cu     10.273943   1.151991  10.598232
Cu      4.889795   3.842524  10.598210
Cu      8.173192   3.842494  10.598174
O       5.343553   2.031403  10.000000
O       6.526238   4.721834  10.000003
O      -2.274654   8.839691  18.669203
O       7.305340   0.777333  18.631306
Cu      1.644597   7.168973  18.245236
Cu      4.820555   7.005202  18.156647
Cu     -0.651992   9.720307  18.218268
Cu      2.683065   9.507642  18.094497
O      -0.124649   7.891924  17.676354
O       1.041964  10.555074  17.656031
O       1.752966   6.858708  16.191666
O       2.965029   9.627116  16.122328
Cu      0.108421   7.723490  15.700518
Cu      3.394705   7.763557  15.638483
Cu     -2.000643  10.437362  15.554289
Cu      1.289648  10.462640  15.680484
O      -1.513746   8.604222  15.056817
O       8.057946   0.552355  15.049188
O       0.380333   7.614329  13.714344
O       1.563018  10.304760  13.714347
Cu     -1.266619   8.493669  13.116173
Cu      2.016777   8.493637  13.116139
Cu      5.035613   0.422455  13.116118
Cu      8.319010   0.422425  13.116082
O       2.470564   6.682623  12.517910
O       3.653246   9.373049  12.517907
O      -0.948167   8.343972  11.196440
O       8.637499   0.272682  11.196437
Cu      2.789055   6.532880  10.598266
Cu      6.072451   6.532849  10.598232
Cu      0.688302   9.223383  10.598210
Cu      3.971700   9.223352  10.598174
O       1.142061   7.412261  10.000000
O       2.324746  10.102692  10.000003
N       2.031159   8.509030  19.502516
O       0.565957   8.163657  21.470092
H       1.577138   8.045681  21.606710
H       0.450022   8.010675  22.680426
INTERMEDIATE_IMAGE
ATOMIC_POSITIONS {angstrom}
O       8.512700   3.464784  18.691947
O      -3.430456   6.145898  18.653094
Cu     -0.784505   1.613809  18.119256
Cu      2.377349   1.674962  18.175091
Cu     -2.983030   4.324936  18.252736
Cu      0.351756   4.238273  18.117822
O      10.668053   2.478928  17.699568
O      -1.295008   5.158438  17.684628
O      -0.593107   1.504686  16.088734
O       0.579609   4.200077  16.098094
Cu     10.861464   2.346971  15.690158
Cu      1.023504   2.396358  15.542185
Cu      8.777120   5.053120  15.562634
Cu     -1.095393   5.029764  15.683346
O       9.248104   3.231568  15.055940
O      -2.701224   5.914632  15.050906
O      11.148684   2.233471  13.714344
O      -0.802349   4.923902  13.714347
Cu      9.501732   3.112811  13.116173
Cu     -0.348590   3.112779  13.116139
Cu      7.400980   5.803313  13.116118
Cu     -2.449342   5.803283  13.116082
O       0.105197   1.301765  12.517910
O       1.287879   3.992191  12.517907
O       9.820184   2.963114  11.196440
O      -2.130853   5.653540  11.196437
Cu      0.423688   1.152022  10.598266
Cu      3.707084   1.151991  10.598232
Cu     -1.677065   3.842524  10.598210
Cu      1.606332   3.842494  10.598174
O      -1.223306   2.031403  10.000000
O      -0.040621   4.721834  10.000003
O       4.402220   8.824643  18.513245
O       0.774711   0.784026  18.677770
Cu     -4.980642   6.978148  18.120997
Cu     -1.815870   7.038363  18.179800
Cu     -7.129548   9.740705  18.185760
Cu     -3.806691   9.696500  18.126730
O       6.519736   7.872768  17.653302
O      -5.448332  10.600974  17.657864
O      -4.799828   6.860226  16.062402
O      -3.619598   9.542861  16.075955
Cu      6.688945   7.755983  15.666589
Cu     -3.177635   7.743257  15.539816
Cu      4.606778  10.461063  15.583263
Cu     -5.258648  10.440225  15.671767
O       5.052461   8.632079  15.056038
O       1.518245   0.562646  15.053693
O       6.947192   7.614329  13.714344
O      -5.003841  10.304760  13.714347
Cu      5.300240   8.493669  13.116173
Cu     -4.550082   8.493637  13.116139
Cu     11.602472   0.422455  13.116118
Cu      1.752151   0.422425  13.116082
O      -4.096295   6.682623  12.517910
O      -2.913613   9.373049  12.517907
O       5.618692   8.343972  11.196440
O       2.070639   0.272682  11.196437
Cu     -3.777805   6.532880  10.598266
Cu     -0.494408   6.532849  10.598232
Cu     -5.878557   9.223383  10.598210
Cu     -2.595160   9.223352  10.598174
O      -5.424798   7.412261  10.000000
O      -4.242113  10.102692  10.000003
O       1.937717   3.473787  18.683976
O       3.202661   6.167746  18.669406
Cu      5.740052   1.612911  18.107798
Cu      8.962963   1.642900  18.243151
Cu      3.570071   4.354533  18.186474
Cu      6.951844   4.271397  18.127200
O       4.074067   2.493002  17.642498
O       5.295120   5.151856  17.662857
O       5.951963   1.491538  16.057887
O       7.148160   4.183779  16.079042
Cu      4.305980   2.379555  15.663268
Cu      7.582673   2.374161  15.557311
Cu      2.204750   5.090514  15.595215
Cu      5.495856   5.065136  15.668932
O       2.682703   3.278615  15.046729
O       3.860638   5.947249  15.059312
O       4.581825   2.233471  13.714344
O       5.764510   4.923902  13.714347
Cu      2.934873   3.112811  13.116173
Cu      6.218269   3.112779  13.116139
Cu      0.834121   5.803313  13.116118
Cu      4.117518   5.803283  13.116082
O       6.672057   1.301765  12.517910
O       7.854738   3.992191  12.517907
O       3.253325   2.963114  11.196440
O       4.436007   5.653540  11.196437
Cu      6.990547   1.152022  10.598266
Cu     10.273943   1.151991  10.598232
Cu      4.889795   3.842524  10.598210
Cu      8.173192   3.842494  10.598174
O       5.343553   2.031403  10.000000
O       6.526238   4.721834  10.000003
O      -2.267646   8.841575  18.673305
O       7.309452   0.780136  18.624718
Cu      1.659086   7.183464  18.267799
Cu      4.829743   7.004526  18.157887
Cu     -0.639112   9.719243  18.237464
Cu      2.692955   9.510616  18.080209
O      -0.113488   7.896189  17.690436
O       1.045821  10.559829  17.653627
O       1.757665   6.863040  16.207871
O       2.968016   9.636302  16.119273
Cu      0.112957   7.724469  15.708233
Cu      3.397120   7.767473  15.642515
Cu     -1.996387  10.434845  15.560663
Cu      1.288253  10.465577  15.678109
O      -1.509580   8.601949  15.060178
O       8.056784   0.553539  15.048706
O       0.380333   7.614329  13.714344
O       1.563018  10.304760  13.714347
Cu     -1.266619   8.493669  13.116173
Cu      2.016777   8.493637  13.116139
Cu      5.035613   0.422455  13.116118
Cu      8.319010   0.422425  13.116082
O       2.470564   6.682623  12.517910
O       3.653246   9.373049  12.517907
O      -0.948167   8.343972  11.196440
O       8.637499   0.272682  11.196437
Cu      2.789055   6.532880  10.598266
Cu      6.072451   6.532849  10.598232
Cu      0.688302   9.223383  10.598210
Cu      3.971700   9.223352  10.598174
O       1.142061   7.412261  10.000000
O       2.324746  10.102692  10.000003
N       2.069474   8.539446  19.491212
O       0.530273   8.095996  21.647680
H       1.518207   7.973235  21.472866
H       0.296783   7.922626  22.616898
INTERMEDIATE_IMAGE
ATOMIC_POSITIONS {angstrom}
O       8.421665   3.480519  18.609723
O      -3.492117   6.133347  18.704539
Cu     -0.845095   1.636060  18.131370
Cu      2.344751   1.644144  18.180512
Cu     -3.066074   4.338242  18.179151
Cu      0.295827   4.219922  18.128991
O      10.603715   2.487877  17.662934
O      -1.342691   5.152194  17.676091
O      -0.620662   1.501377  16.074363
O       0.571188   4.181203  16.098162
Cu     10.856557   2.363113  15.677464
Cu      1.008863   2.375410  15.561999
Cu      8.743374   5.053451  15.546388
Cu     -1.090939   5.040393  15.683915
O       9.232622   3.239693  15.046576
O      -2.715944   5.919057  15.049892
O      11.148684   2.233471  13.714344
O      -0.802349   4.923902  13.714347
Cu      9.501732   3.112811  13.116173
Cu     -0.348590   3.112779  13.116139
Cu      7.400980   5.803313  13.116118
Cu     -2.449342   5.803283  13.116082
O       0.105197   1.301765  12.517910
O       1.287879   3.992191  12.517907
O       9.820184   2.963114  11.196440
O      -2.130853   5.653540  11.196437
Cu      0.423688   1.152022  10.598266
Cu      3.707084   1.151991  10.598232
Cu     -1.677065   3.842524  10.598210
Cu      1.606332   3.842494  10.598174
O      -1.223306   2.031403  10.000000
O      -0.040621   4.721834  10.000003
O       4.277326   8.863042  18.604341